db/data/324524651244132233013706315252189827357.z3.out
sat
-------------------
52.824805731
